# Solution for model cur_assignment
# Objective value = 5.3253245427180548e+02
Assign[0,0] 0
Assign[0,1] 1
Assign[1,0] 1
Assign[1,1] 0
Assign[2,0] 0
Assign[2,1] 1
Assign[3,0] 0
Assign[3,1] 1
Assign[4,0] 0
Assign[4,1] 1
Assign[5,0] 0
Assign[5,1] 1
Assign[6,0] 1
Assign[6,1] 0
Assign[7,0] 1
Assign[7,1] 0
Assign[8,0] 1
Assign[8,1] 0
Assign[9,0] 1
Assign[9,1] 0
Assign[10,0] 1
Assign[10,1] 0
Assign[11,0] 0
Assign[11,1] 1
Assign[12,0] 0
Assign[12,1] 1
Assign[13,0] 0
Assign[13,1] 1
Assign[14,0] 1
Assign[14,1] 0
Assign[15,0] 0
Assign[15,1] 1
Assign[16,0] 0
Assign[16,1] 1
Assign[17,0] 0
Assign[17,1] 1
Assign[18,0] 0
Assign[18,1] 1
Assign[19,0] 1
Assign[19,1] 0
Assign[20,0] 0
Assign[20,1] 1
Assign[21,0] 0
Assign[21,1] 1
Assign[22,0] 0
Assign[22,1] 1
Assign[23,0] 0
Assign[23,1] 1
Assign[24,0] 0
Assign[24,1] 1
Assign[25,0] 0
Assign[25,1] 1
Assign[26,0] 1
Assign[26,1] 0
Assign[27,0] 1
Assign[27,1] 0
Assign[28,0] 1
Assign[28,1] 0
Assign[29,0] 0
Assign[29,1] 1
Assign[30,0] 0
Assign[30,1] 1
Assign[31,0] 0
Assign[31,1] 1
Assign[32,0] 0
Assign[32,1] 1
Assign[33,0] 1
Assign[33,1] 0
Assign[34,0] 1
Assign[34,1] 0
Assign[35,0] 0
Assign[35,1] 1
Assign[36,0] 1
Assign[36,1] 0
Assign[37,0] 0
Assign[37,1] 1
Assign[38,0] 1
Assign[38,1] 0
Assign[39,0] 1
Assign[39,1] 0
Assign[40,0] 1
Assign[40,1] 0
Assign[41,0] 1
Assign[41,1] 0
Assign[42,0] 0
Assign[42,1] 1
Assign[43,0] 0
Assign[43,1] 1
Assign[44,0] 0
Assign[44,1] 1
Assign[45,0] 0
Assign[45,1] 1
Assign[46,0] 1
Assign[46,1] 0
Assign[47,0] 0
Assign[47,1] 1
Assign[48,0] 0
Assign[48,1] 1
Assign[49,0] 0
Assign[49,1] 1
Assign[50,0] 0
Assign[50,1] 1
Assign[51,0] 0
Assign[51,1] 1
Assign[52,0] 0
Assign[52,1] 1
Assign[53,0] 1
Assign[53,1] 0
Assign[54,0] 0
Assign[54,1] 1
Assign[55,0] 0
Assign[55,1] 1
Assign[56,0] 1
Assign[56,1] 0
Assign[57,0] 0
Assign[57,1] 1
Assign[58,0] 0
Assign[58,1] 1
Assign[59,0] 0
Assign[59,1] 1
Assign[60,0] 1
Assign[60,1] 0
Assign[61,0] 0
Assign[61,1] 1
Assign[62,0] 0
Assign[62,1] 1
Assign[63,0] 0
Assign[63,1] 1
Assign[64,0] 0
Assign[64,1] 1
Assign[65,0] 0
Assign[65,1] 1
Assign[66,0] 0
Assign[66,1] 1
Assign[67,0] 0
Assign[67,1] 1
Assign[68,0] 0
Assign[68,1] 1
Assign[69,0] 1
Assign[69,1] 0
Assign[70,0] 0
Assign[70,1] 1
Assign[71,0] 0
Assign[71,1] 1
Assign[72,0] 0
Assign[72,1] 1
Assign[73,0] 1
Assign[73,1] 0
Assign[74,0] 1
Assign[74,1] 0
Assign[75,0] 1
Assign[75,1] 0
Assign[76,0] 0
Assign[76,1] 1
Assign[77,0] 1
Assign[77,1] 0
Assign[78,0] 0
Assign[78,1] 1
Assign[79,0] 1
Assign[79,1] 0
Assign[80,0] 1
Assign[80,1] 0
Assign[81,0] 0
Assign[81,1] 1
Assign[82,0] 0
Assign[82,1] 1
Assign[83,0] 0
Assign[83,1] 1
Assign[84,0] 1
Assign[84,1] 0
Assign[85,0] 0
Assign[85,1] 1
Assign[86,0] 0
Assign[86,1] 1
Assign[87,0] 0
Assign[87,1] 1
Assign[88,0] 0
Assign[88,1] 1
Assign[89,0] 1
Assign[89,1] 0
Assign[90,0] 1
Assign[90,1] 0
Assign[91,0] 0
Assign[91,1] 1
Assign[92,0] 1
Assign[92,1] 0
Assign[93,0] 0
Assign[93,1] 1
Assign[94,0] 1
Assign[94,1] 0
Assign[95,0] 1
Assign[95,1] 0
